100 150702
87 13 43 79 95 58 24 99 63 1 18 12 41 92 25 15 48 50 27 66 38 78 49 84 97 35 98 73 3 94 71 59 22 40 34 30 68 51 9 4 56 19 55 83 29 10 88 91 53 89 85 17 45 14 2 93 61 77 47 8 26 52 80 54 100 11 60 31 90 57 36 33 21 42 5 81 32 7 23 67 76 37 20 96 16 75 44 82 86 28 64 70 6 46 74 69 72 65 39 62 
